<number of tasks>
20

<cycle time>
1000

<order strength>
0,842


<task times>
1 217
2 26
3 22
4 126
5 39
6 183
7 239
8 174
9 87
10 182
11 20
12 155
13 76
14 247
15 111
16 143
17 344
18 76
19 100
20 292

<precedence relations>
1,2
1,3
1,4
2,10
3,5
3,6
4,5
4,6
5,7
5,8
6,7
6,8
7,9
7,10
8,9
8,10
9,11
9,12
10,11
10,12
11,14
11,17
11,18
12,13
12,14
12,15
13,16
13,17
13,18
14,16
15,18
16,19
16,20
17,20

<end>
